
  12   12
  10   10   10   10   10   10   10   10   10   10   10   10

   0   0   0   0   0   0   0   0   0   0   0   0   0   5 2 3 5 10 11 
   2   1   1   0   5   0   0   0   0   1   0   0   1   2 6 4 
   2   9   0   0   0   0   0   0   0   5   0   0   0   2 9 6 
   6   4   0   0   0   1   0   0   0   5   1   0   0   2 9 8 
   1   0   0   1   0   6   0   0   0   0   0   0   0   1 7 
   3   0   9   0   0   0   0   1   0   5   5   0   0   1 8 
   5   8   0   9   0   8   0   7   0   8   0   0   0   1 8 
   4   0   0   0   0   0   0   7   1   6   0   5   0   1 12
   8   3   0   0   0   0   0   0   0   0   0   0   0   1 12
   8   0   0   0   0   0   5   5   4   5   9   0   6   1 12
   7   0   0   0   0   0   0   0  10   0   0   0   8   1 12
   0   0   0   0   0   0   0   0   0   0   0   0   0   0 
